25 90
15 21
6 18
3 22
5 19
8 18
9 17
2 11
1 15
6 20
16 22
20 22
11 16
1 17
6 13
16 24
7 21
5 14
5 23
9 21
16 17
7 23
12 13
3 10
22 23
1 3
10 24
13 23
7 16
3 12
4 11
23 24
12 24
5 18
3 21
8 20
10 17
1 23
3 5
14 23
3 23
4 22
8 13
2 6
19 22
1 16
11 18
6 15
4 6
21 22
14 16
4 15
4 24
10 12
0 11
8 24
6 17
3 9
12 21
14 18
0 4
0 13
10 23
4 19
0 6
2 3
8 19
10 16
1 13
0 15
11 15
0 24
7 20
12 16
4 12
2 5
5 22
2 23
15 17
6 14
0 19
15 19
6 16
7 15
7 24
4 16
10 13
2 9
9 24
6 9
13 24
